&INPUT
  fildyn='../results_ph/Si.dyn',
  zasr='no',
  flfrc='Si.fc'
 /
